0 108 
1 107 
2 106 
3 110 
4 111 
5 111 
6 111 
7 113 
8 111 
9 110 
10 114 
11 114 
12 115 
13 112 
14 109 
15 106 
16 104 
17 104 
18 102 
19 98 
20 95 
21 94 
22 93 
23 90 
24 86 
25 86 
26 85 
27 85 
28 83 
29 86 
30 88 
31 84 
32 91 
33 88 
34 83 
35 79 
36 77 
37 75 
38 74 
39 72 
40 69 
41 65 
42 64 
43 64 
44 62 
45 61 
46 61 
47 61 
48 60 
49 61 
50 62 
51 63 
52 64 
53 64 
54 63 
55 60 
56 59 
57 58 
58 57 
59 56 
60 53 
61 50 
62 46 
63 42 
64 40 
65 40 
66 39 
67 41 
68 40 
69 46 
70 46 
71 46 
72 45 
73 45 
74 43 
75 41 
76 41 
77 36 
78 34 
79 36 
80 35 
81 34 
82 33 
83 32 
84 30 
85 27 
86 27 
87 27 
88 22 
89 20 
90 18 
91 21 
92 19 
93 17 
94 16 
95 12 
96 20 
97 21 
98 20 
99 19 
100 20 
101 19 
102 18 
103 16 
104 14 
105 12 
106 11 
107 8 
108 8 
109 7 
110 5 
111 4 
112 4 
113 3 
114 0 
115 0 
116 0 
117 0 
118 0 
119 0 
120 0 
121 0 
122 0 
123 0 
124 0 
125 0 
126 0 
127 0 

